(set-logic QF_BV)
(set-info :smt-lib-version 2.0)
(set-option :produce-models true)

(declare-fun password0 () (_ BitVec 32))
(assert (let ((a!1 (bvor (bvlshr (bvand (bvadd password0 #x550342b8) #xaaaaaaaa)
                         #x00000001)
                 (bvshl (bvand (bvadd password0 #x550342b8) #x55555555)
                        #x00000001)))
      (a!205 (bvsub ((_ rotate_right 14)
                      (bvsub (bvadd password0 #x550342b8) #xecf6d571))
                    #xecf6d571)))
(let ((a!2 (bvor (bvlshr (bvand a!1 #xcccccccc) #x00000002)
                 (bvshl (bvand a!1 #x33333333) #x00000002)))
      (a!206 (bvsub ((_ rotate_right 14)
                      (bvsub ((_ rotate_right 14) a!205) #xecf6d571))
                    #xecf6d571)))
(let ((a!3 (bvor (bvlshr (bvand a!2 #xf0f0f0f0) #x00000004)
                 (bvshl (bvand a!2 #x0f0f0f0f) #x00000004)))
      (a!207 (bvsub ((_ rotate_right 14)
                      (bvsub ((_ rotate_right 14) a!206) #xecf6d571))
                    #xecf6d571)))
(let ((a!4 (bvor (bvlshr (bvand a!3 #xff00ff00) #x00000008)
                 (bvshl (bvand a!3 #x00ff00ff) #x00000008)))
      (a!208 (bvsub ((_ rotate_right 14)
                      (bvsub ((_ rotate_right 14) a!207) #xecf6d571))
                    #xecf6d571)))
(let ((a!5 (bvadd (bvxor (bvor (bvlshr a!4 #x00000010) (bvshl a!4 #x00000010))
                         #x8fd5c5bd)
                  #x8fd5c5bd))
      (a!209 (bvsub ((_ rotate_right 14)
                      (bvsub ((_ rotate_right 14) a!208) #xecf6d571))
                    #xecf6d571)))
(let ((a!6 (bvor (bvlshr (bvand a!5 #xaaaaaaaa) #x00000001)
                 (bvshl (bvand a!5 #x55555555) #x00000001)))
      (a!210 (bvsub ((_ rotate_right 14)
                      (bvsub ((_ rotate_right 14) a!209) #xecf6d571))
                    #xecf6d571)))
(let ((a!7 (bvor (bvlshr (bvand a!6 #xcccccccc) #x00000002)
                 (bvshl (bvand a!6 #x33333333) #x00000002)))
      (a!211 (bvsub ((_ rotate_right 14)
                      (bvsub ((_ rotate_right 14) a!210) #xecf6d571))
                    #xecf6d571)))
(let ((a!8 (bvor (bvlshr (bvand a!7 #xf0f0f0f0) #x00000004)
                 (bvshl (bvand a!7 #x0f0f0f0f) #x00000004)))
      (a!212 (bvsub ((_ rotate_right 14)
                      (bvsub ((_ rotate_right 14) a!211) #xecf6d571))
                    #xecf6d571)))
(let ((a!9 (bvor (bvlshr (bvand a!8 #xff00ff00) #x00000008)
                 (bvshl (bvand a!8 #x00ff00ff) #x00000008)))
      (a!213 (bvsub ((_ rotate_right 14)
                      (bvsub ((_ rotate_right 14) a!212) #xecf6d571))
                    #xecf6d571)))
(let ((a!10 (bvadd (bvxor (bvor (bvlshr a!9 #x00000010) (bvshl a!9 #x00000010))
                          #x8fd5c5bd)
                   #x8fd5c5bd))
      (a!214 (bvsub ((_ rotate_right 14)
                      (bvsub ((_ rotate_right 14) a!213) #xecf6d571))
                    #xecf6d571)))
(let ((a!11 (bvor (bvlshr (bvand a!10 #xaaaaaaaa) #x00000001)
                  (bvshl (bvand a!10 #x55555555) #x00000001)))
      (a!215 (bvsub ((_ rotate_right 14)
                      (bvsub ((_ rotate_right 14) a!214) #xecf6d571))
                    #xecf6d571)))
(let ((a!12 (bvor (bvlshr (bvand a!11 #xcccccccc) #x00000002)
                  (bvshl (bvand a!11 #x33333333) #x00000002)))
      (a!216 (bvsub ((_ rotate_right 14)
                      (bvsub ((_ rotate_right 14) a!215) #xecf6d571))
                    #xecf6d571)))
(let ((a!13 (bvor (bvlshr (bvand a!12 #xf0f0f0f0) #x00000004)
                  (bvshl (bvand a!12 #x0f0f0f0f) #x00000004)))
      (a!217 (bvsub ((_ rotate_right 14)
                      (bvsub ((_ rotate_right 14) a!216) #xecf6d571))
                    #xecf6d571)))
(let ((a!14 (bvor (bvlshr (bvand a!13 #xff00ff00) #x00000008)
                  (bvshl (bvand a!13 #x00ff00ff) #x00000008)))
      (a!218 (bvsub ((_ rotate_right 14)
                      (bvsub ((_ rotate_right 14) a!217) #xecf6d571))
                    #xecf6d571)))
(let ((a!15 (bvadd (bvxor (bvor (bvlshr a!14 #x00000010)
                                (bvshl a!14 #x00000010))
                          #x8fd5c5bd)
                   #x8fd5c5bd))
      (a!219 (bvsub ((_ rotate_right 14)
                      (bvsub ((_ rotate_right 14) a!218) #xecf6d571))
                    #xecf6d571)))
(let ((a!16 (bvor (bvlshr (bvand a!15 #xaaaaaaaa) #x00000001)
                  (bvshl (bvand a!15 #x55555555) #x00000001)))
      (a!220 (bvsub ((_ rotate_right 14)
                      (bvsub ((_ rotate_right 14) a!219) #xecf6d571))
                    #xecf6d571)))
(let ((a!17 (bvor (bvlshr (bvand a!16 #xcccccccc) #x00000002)
                  (bvshl (bvand a!16 #x33333333) #x00000002)))
      (a!221 (bvsub ((_ rotate_right 14)
                      (bvsub ((_ rotate_right 14) a!220) #xecf6d571))
                    #xecf6d571)))
(let ((a!18 (bvor (bvlshr (bvand a!17 #xf0f0f0f0) #x00000004)
                  (bvshl (bvand a!17 #x0f0f0f0f) #x00000004)))
      (a!222 (bvsub ((_ rotate_right 14)
                      (bvsub ((_ rotate_right 14) a!221) #xecf6d571))
                    #xecf6d571)))
(let ((a!19 (bvor (bvlshr (bvand a!18 #xff00ff00) #x00000008)
                  (bvshl (bvand a!18 #x00ff00ff) #x00000008)))
      (a!223 (bvsub ((_ rotate_right 14)
                      (bvsub ((_ rotate_right 14) a!222) #xecf6d571))
                    #xecf6d571)))
(let ((a!20 (bvadd (bvxor (bvor (bvlshr a!19 #x00000010)
                                (bvshl a!19 #x00000010))
                          #x8fd5c5bd)
                   #x8fd5c5bd))
      (a!224 (bvsub ((_ rotate_right 14)
                      (bvsub ((_ rotate_right 14) a!223) #xecf6d571))
                    #xecf6d571)))
(let ((a!21 (bvor (bvlshr (bvand a!20 #xaaaaaaaa) #x00000001)
                  (bvshl (bvand a!20 #x55555555) #x00000001)))
      (a!225 (bvsub ((_ rotate_right 14)
                      (bvsub ((_ rotate_right 14) a!224) #xecf6d571))
                    #xecf6d571)))
(let ((a!22 (bvor (bvlshr (bvand a!21 #xcccccccc) #x00000002)
                  (bvshl (bvand a!21 #x33333333) #x00000002)))
      (a!226 (bvsub ((_ rotate_right 14)
                      (bvsub ((_ rotate_right 14) a!225) #xecf6d571))
                    #xecf6d571)))
(let ((a!23 (bvor (bvlshr (bvand a!22 #xf0f0f0f0) #x00000004)
                  (bvshl (bvand a!22 #x0f0f0f0f) #x00000004)))
      (a!227 (bvsub ((_ rotate_right 14)
                      (bvsub ((_ rotate_right 14) a!226) #xecf6d571))
                    #xecf6d571)))
(let ((a!24 (bvor (bvlshr (bvand a!23 #xff00ff00) #x00000008)
                  (bvshl (bvand a!23 #x00ff00ff) #x00000008)))
      (a!228 (bvsub ((_ rotate_right 14)
                      (bvsub ((_ rotate_right 14) a!227) #xecf6d571))
                    #xecf6d571)))
(let ((a!25 (bvadd (bvxor (bvor (bvlshr a!24 #x00000010)
                                (bvshl a!24 #x00000010))
                          #x8fd5c5bd)
                   #x8fd5c5bd))
      (a!229 (bvsub ((_ rotate_right 14)
                      (bvsub ((_ rotate_right 14) a!228) #xecf6d571))
                    #xecf6d571)))
(let ((a!26 (bvor (bvlshr (bvand a!25 #xaaaaaaaa) #x00000001)
                  (bvshl (bvand a!25 #x55555555) #x00000001)))
      (a!230 (bvsub ((_ rotate_right 14)
                      (bvsub ((_ rotate_right 14) a!229) #xecf6d571))
                    #xecf6d571)))
(let ((a!27 (bvor (bvlshr (bvand a!26 #xcccccccc) #x00000002)
                  (bvshl (bvand a!26 #x33333333) #x00000002)))
      (a!231 (bvsub ((_ rotate_right 14)
                      (bvsub ((_ rotate_right 14) a!230) #xecf6d571))
                    #xecf6d571)))
(let ((a!28 (bvor (bvlshr (bvand a!27 #xf0f0f0f0) #x00000004)
                  (bvshl (bvand a!27 #x0f0f0f0f) #x00000004)))
      (a!232 (bvsub ((_ rotate_right 14)
                      (bvsub ((_ rotate_right 14) a!231) #xecf6d571))
                    #xecf6d571)))
(let ((a!29 (bvor (bvlshr (bvand a!28 #xff00ff00) #x00000008)
                  (bvshl (bvand a!28 #x00ff00ff) #x00000008)))
      (a!233 (bvsub ((_ rotate_right 14)
                      (bvsub ((_ rotate_right 14) a!232) #xecf6d571))
                    #xecf6d571)))
(let ((a!30 (bvadd (bvxor (bvor (bvlshr a!29 #x00000010)
                                (bvshl a!29 #x00000010))
                          #x8fd5c5bd)
                   #x8fd5c5bd))
      (a!234 (bvsub ((_ rotate_right 14)
                      (bvsub ((_ rotate_right 14) a!233) #xecf6d571))
                    #xecf6d571)))
(let ((a!31 (bvor (bvlshr (bvand a!30 #xaaaaaaaa) #x00000001)
                  (bvshl (bvand a!30 #x55555555) #x00000001)))
      (a!235 (bvsub ((_ rotate_right 14)
                      (bvsub ((_ rotate_right 14) a!234) #xecf6d571))
                    #xecf6d571)))
(let ((a!32 (bvor (bvlshr (bvand a!31 #xcccccccc) #x00000002)
                  (bvshl (bvand a!31 #x33333333) #x00000002)))
      (a!236 (bvsub ((_ rotate_right 14)
                      (bvsub ((_ rotate_right 14) a!235) #xecf6d571))
                    #xecf6d571)))
(let ((a!33 (bvor (bvlshr (bvand a!32 #xf0f0f0f0) #x00000004)
                  (bvshl (bvand a!32 #x0f0f0f0f) #x00000004)))
      (a!237 (bvsub ((_ rotate_right 14)
                      (bvsub ((_ rotate_right 14) a!236) #xecf6d571))
                    #xecf6d571)))
(let ((a!34 (bvor (bvlshr (bvand a!33 #xff00ff00) #x00000008)
                  (bvshl (bvand a!33 #x00ff00ff) #x00000008)))
      (a!238 (bvsub ((_ rotate_right 14)
                      (bvsub ((_ rotate_right 14) a!237) #xecf6d571))
                    #xecf6d571)))
(let ((a!35 (bvadd (bvxor (bvor (bvlshr a!34 #x00000010)
                                (bvshl a!34 #x00000010))
                          #x8fd5c5bd)
                   #x8fd5c5bd))
      (a!239 (bvsub ((_ rotate_right 14)
                      (bvsub ((_ rotate_right 14) a!238) #xecf6d571))
                    #xecf6d571)))
(let ((a!36 (bvor (bvlshr (bvand a!35 #xaaaaaaaa) #x00000001)
                  (bvshl (bvand a!35 #x55555555) #x00000001)))
      (a!240 (bvsub ((_ rotate_right 14)
                      (bvsub ((_ rotate_right 14) a!239) #xecf6d571))
                    #xecf6d571)))
(let ((a!37 (bvor (bvlshr (bvand a!36 #xcccccccc) #x00000002)
                  (bvshl (bvand a!36 #x33333333) #x00000002)))
      (a!241 (bvsub ((_ rotate_right 14)
                      (bvsub ((_ rotate_right 14) a!240) #xecf6d571))
                    #xecf6d571)))
(let ((a!38 (bvor (bvlshr (bvand a!37 #xf0f0f0f0) #x00000004)
                  (bvshl (bvand a!37 #x0f0f0f0f) #x00000004)))
      (a!242 (bvsub ((_ rotate_right 14)
                      (bvsub ((_ rotate_right 14) a!241) #xecf6d571))
                    #xecf6d571)))
(let ((a!39 (bvor (bvlshr (bvand a!38 #xff00ff00) #x00000008)
                  (bvshl (bvand a!38 #x00ff00ff) #x00000008)))
      (a!243 (bvsub ((_ rotate_right 14)
                      (bvsub ((_ rotate_right 14) a!242) #xecf6d571))
                    #xecf6d571)))
(let ((a!40 (bvadd (bvxor (bvor (bvlshr a!39 #x00000010)
                                (bvshl a!39 #x00000010))
                          #x8fd5c5bd)
                   #x8fd5c5bd))
      (a!244 (bvsub ((_ rotate_right 14)
                      (bvsub ((_ rotate_right 14) a!243) #xecf6d571))
                    #xecf6d571)))
(let ((a!41 (bvor (bvlshr (bvand a!40 #xaaaaaaaa) #x00000001)
                  (bvshl (bvand a!40 #x55555555) #x00000001)))
      (a!245 (bvsub ((_ rotate_right 14)
                      (bvsub ((_ rotate_right 14) a!244) #xecf6d571))
                    #xecf6d571)))
(let ((a!42 (bvor (bvlshr (bvand a!41 #xcccccccc) #x00000002)
                  (bvshl (bvand a!41 #x33333333) #x00000002)))
      (a!246 (bvsub ((_ rotate_right 14)
                      (bvsub ((_ rotate_right 14) a!245) #xecf6d571))
                    #xecf6d571)))
(let ((a!43 (bvor (bvlshr (bvand a!42 #xf0f0f0f0) #x00000004)
                  (bvshl (bvand a!42 #x0f0f0f0f) #x00000004)))
      (a!247 (bvsub ((_ rotate_right 14)
                      (bvsub ((_ rotate_right 14) a!246) #xecf6d571))
                    #xecf6d571)))
(let ((a!44 (bvor (bvlshr (bvand a!43 #xff00ff00) #x00000008)
                  (bvshl (bvand a!43 #x00ff00ff) #x00000008)))
      (a!248 (bvsub ((_ rotate_right 14)
                      (bvsub ((_ rotate_right 14) a!247) #xecf6d571))
                    #xecf6d571)))
(let ((a!45 (bvadd (bvxor (bvor (bvlshr a!44 #x00000010)
                                (bvshl a!44 #x00000010))
                          #x8fd5c5bd)
                   #x8fd5c5bd))
      (a!249 (bvsub ((_ rotate_right 14)
                      (bvsub ((_ rotate_right 14) a!248) #xecf6d571))
                    #xecf6d571)))
(let ((a!46 (bvor (bvlshr (bvand a!45 #xaaaaaaaa) #x00000001)
                  (bvshl (bvand a!45 #x55555555) #x00000001)))
      (a!250 (bvsub ((_ rotate_right 14)
                      (bvsub ((_ rotate_right 14) a!249) #xecf6d571))
                    #xecf6d571)))
(let ((a!47 (bvor (bvlshr (bvand a!46 #xcccccccc) #x00000002)
                  (bvshl (bvand a!46 #x33333333) #x00000002)))
      (a!251 (bvsub ((_ rotate_right 14)
                      (bvsub ((_ rotate_right 14) a!250) #xecf6d571))
                    #xecf6d571)))
(let ((a!48 (bvor (bvlshr (bvand a!47 #xf0f0f0f0) #x00000004)
                  (bvshl (bvand a!47 #x0f0f0f0f) #x00000004)))
      (a!252 (bvsub ((_ rotate_right 14)
                      (bvsub ((_ rotate_right 14) a!251) #xecf6d571))
                    #xecf6d571)))
(let ((a!49 (bvor (bvlshr (bvand a!48 #xff00ff00) #x00000008)
                  (bvshl (bvand a!48 #x00ff00ff) #x00000008)))
      (a!253 (bvsub ((_ rotate_right 14)
                      (bvsub ((_ rotate_right 14) a!252) #xecf6d571))
                    #xecf6d571)))
(let ((a!50 (bvadd (bvxor (bvor (bvlshr a!49 #x00000010)
                                (bvshl a!49 #x00000010))
                          #x8fd5c5bd)
                   #x8fd5c5bd))
      (a!254 (bvsub ((_ rotate_right 14)
                      (bvsub ((_ rotate_right 14) a!253) #xecf6d571))
                    #xecf6d571)))
(let ((a!51 (bvor (bvlshr (bvand a!50 #xaaaaaaaa) #x00000001)
                  (bvshl (bvand a!50 #x55555555) #x00000001)))
      (a!255 (bvsub ((_ rotate_right 14)
                      (bvsub ((_ rotate_right 14) a!254) #xecf6d571))
                    #xecf6d571)))
(let ((a!52 (bvor (bvlshr (bvand a!51 #xcccccccc) #x00000002)
                  (bvshl (bvand a!51 #x33333333) #x00000002)))
      (a!256 (bvsub ((_ rotate_right 14)
                      (bvsub ((_ rotate_right 14) a!255) #xecf6d571))
                    #xecf6d571)))
(let ((a!53 (bvor (bvlshr (bvand a!52 #xf0f0f0f0) #x00000004)
                  (bvshl (bvand a!52 #x0f0f0f0f) #x00000004)))
      (a!257 (bvsub ((_ rotate_right 14)
                      (bvsub ((_ rotate_right 14) a!256) #xecf6d571))
                    #xecf6d571)))
(let ((a!54 (bvor (bvlshr (bvand a!53 #xff00ff00) #x00000008)
                  (bvshl (bvand a!53 #x00ff00ff) #x00000008)))
      (a!258 (bvsub ((_ rotate_right 14)
                      (bvsub ((_ rotate_right 14) a!257) #xecf6d571))
                    #xecf6d571)))
(let ((a!55 (bvadd (bvxor (bvor (bvlshr a!54 #x00000010)
                                (bvshl a!54 #x00000010))
                          #x8fd5c5bd)
                   #x8fd5c5bd))
      (a!259 (bvsub ((_ rotate_right 14)
                      (bvsub ((_ rotate_right 14) a!258) #xecf6d571))
                    #xecf6d571)))
(let ((a!56 (bvor (bvlshr (bvand a!55 #xaaaaaaaa) #x00000001)
                  (bvshl (bvand a!55 #x55555555) #x00000001))))
(let ((a!57 (bvor (bvlshr (bvand a!56 #xcccccccc) #x00000002)
                  (bvshl (bvand a!56 #x33333333) #x00000002))))
(let ((a!58 (bvor (bvlshr (bvand a!57 #xf0f0f0f0) #x00000004)
                  (bvshl (bvand a!57 #x0f0f0f0f) #x00000004))))
(let ((a!59 (bvor (bvlshr (bvand a!58 #xff00ff00) #x00000008)
                  (bvshl (bvand a!58 #x00ff00ff) #x00000008))))
(let ((a!60 (bvadd (bvxor (bvor (bvlshr a!59 #x00000010)
                                (bvshl a!59 #x00000010))
                          #x8fd5c5bd)
                   #x8fd5c5bd)))
(let ((a!61 (bvor (bvlshr (bvand a!60 #xaaaaaaaa) #x00000001)
                  (bvshl (bvand a!60 #x55555555) #x00000001))))
(let ((a!62 (bvor (bvlshr (bvand a!61 #xcccccccc) #x00000002)
                  (bvshl (bvand a!61 #x33333333) #x00000002))))
(let ((a!63 (bvor (bvlshr (bvand a!62 #xf0f0f0f0) #x00000004)
                  (bvshl (bvand a!62 #x0f0f0f0f) #x00000004))))
(let ((a!64 (bvor (bvlshr (bvand a!63 #xff00ff00) #x00000008)
                  (bvshl (bvand a!63 #x00ff00ff) #x00000008))))
(let ((a!65 (bvadd (bvxor (bvor (bvlshr a!64 #x00000010)
                                (bvshl a!64 #x00000010))
                          #x8fd5c5bd)
                   #x8fd5c5bd)))
(let ((a!66 (bvor (bvlshr (bvand a!65 #xaaaaaaaa) #x00000001)
                  (bvshl (bvand a!65 #x55555555) #x00000001))))
(let ((a!67 (bvor (bvlshr (bvand a!66 #xcccccccc) #x00000002)
                  (bvshl (bvand a!66 #x33333333) #x00000002))))
(let ((a!68 (bvor (bvlshr (bvand a!67 #xf0f0f0f0) #x00000004)
                  (bvshl (bvand a!67 #x0f0f0f0f) #x00000004))))
(let ((a!69 (bvor (bvlshr (bvand a!68 #xff00ff00) #x00000008)
                  (bvshl (bvand a!68 #x00ff00ff) #x00000008))))
(let ((a!70 (bvadd (bvxor (bvor (bvlshr a!69 #x00000010)
                                (bvshl a!69 #x00000010))
                          #x8fd5c5bd)
                   #x8fd5c5bd)))
(let ((a!71 (bvor (bvlshr (bvand a!70 #xaaaaaaaa) #x00000001)
                  (bvshl (bvand a!70 #x55555555) #x00000001))))
(let ((a!72 (bvor (bvlshr (bvand a!71 #xcccccccc) #x00000002)
                  (bvshl (bvand a!71 #x33333333) #x00000002))))
(let ((a!73 (bvor (bvlshr (bvand a!72 #xf0f0f0f0) #x00000004)
                  (bvshl (bvand a!72 #x0f0f0f0f) #x00000004))))
(let ((a!74 (bvor (bvlshr (bvand a!73 #xff00ff00) #x00000008)
                  (bvshl (bvand a!73 #x00ff00ff) #x00000008))))
(let ((a!75 (bvadd (bvxor (bvor (bvlshr a!74 #x00000010)
                                (bvshl a!74 #x00000010))
                          #x8fd5c5bd)
                   #x8fd5c5bd)))
(let ((a!76 (bvor (bvlshr (bvand a!75 #xaaaaaaaa) #x00000001)
                  (bvshl (bvand a!75 #x55555555) #x00000001))))
(let ((a!77 (bvor (bvlshr (bvand a!76 #xcccccccc) #x00000002)
                  (bvshl (bvand a!76 #x33333333) #x00000002))))
(let ((a!78 (bvor (bvlshr (bvand a!77 #xf0f0f0f0) #x00000004)
                  (bvshl (bvand a!77 #x0f0f0f0f) #x00000004))))
(let ((a!79 (bvor (bvlshr (bvand a!78 #xff00ff00) #x00000008)
                  (bvshl (bvand a!78 #x00ff00ff) #x00000008))))
(let ((a!80 (bvadd (bvxor (bvor (bvlshr a!79 #x00000010)
                                (bvshl a!79 #x00000010))
                          #x8fd5c5bd)
                   #x8fd5c5bd)))
(let ((a!81 (bvor (bvlshr (bvand a!80 #xaaaaaaaa) #x00000001)
                  (bvshl (bvand a!80 #x55555555) #x00000001))))
(let ((a!82 (bvor (bvlshr (bvand a!81 #xcccccccc) #x00000002)
                  (bvshl (bvand a!81 #x33333333) #x00000002))))
(let ((a!83 (bvor (bvlshr (bvand a!82 #xf0f0f0f0) #x00000004)
                  (bvshl (bvand a!82 #x0f0f0f0f) #x00000004))))
(let ((a!84 (bvor (bvlshr (bvand a!83 #xff00ff00) #x00000008)
                  (bvshl (bvand a!83 #x00ff00ff) #x00000008))))
(let ((a!85 (bvadd (bvxor (bvor (bvlshr a!84 #x00000010)
                                (bvshl a!84 #x00000010))
                          #x8fd5c5bd)
                   #x8fd5c5bd)))
(let ((a!86 (bvor (bvlshr (bvand a!85 #xaaaaaaaa) #x00000001)
                  (bvshl (bvand a!85 #x55555555) #x00000001))))
(let ((a!87 (bvor (bvlshr (bvand a!86 #xcccccccc) #x00000002)
                  (bvshl (bvand a!86 #x33333333) #x00000002))))
(let ((a!88 (bvor (bvlshr (bvand a!87 #xf0f0f0f0) #x00000004)
                  (bvshl (bvand a!87 #x0f0f0f0f) #x00000004))))
(let ((a!89 (bvor (bvlshr (bvand a!88 #xff00ff00) #x00000008)
                  (bvshl (bvand a!88 #x00ff00ff) #x00000008))))
(let ((a!90 (bvadd (bvxor (bvor (bvlshr a!89 #x00000010)
                                (bvshl a!89 #x00000010))
                          #x8fd5c5bd)
                   #x8fd5c5bd)))
(let ((a!91 (bvor (bvlshr (bvand a!90 #xaaaaaaaa) #x00000001)
                  (bvshl (bvand a!90 #x55555555) #x00000001))))
(let ((a!92 (bvor (bvlshr (bvand a!91 #xcccccccc) #x00000002)
                  (bvshl (bvand a!91 #x33333333) #x00000002))))
(let ((a!93 (bvor (bvlshr (bvand a!92 #xf0f0f0f0) #x00000004)
                  (bvshl (bvand a!92 #x0f0f0f0f) #x00000004))))
(let ((a!94 (bvor (bvlshr (bvand a!93 #xff00ff00) #x00000008)
                  (bvshl (bvand a!93 #x00ff00ff) #x00000008))))
(let ((a!95 (bvadd (bvxor (bvor (bvlshr a!94 #x00000010)
                                (bvshl a!94 #x00000010))
                          #x8fd5c5bd)
                   #x8fd5c5bd)))
(let ((a!96 (bvor (bvlshr (bvand a!95 #xaaaaaaaa) #x00000001)
                  (bvshl (bvand a!95 #x55555555) #x00000001))))
(let ((a!97 (bvor (bvlshr (bvand a!96 #xcccccccc) #x00000002)
                  (bvshl (bvand a!96 #x33333333) #x00000002))))
(let ((a!98 (bvor (bvlshr (bvand a!97 #xf0f0f0f0) #x00000004)
                  (bvshl (bvand a!97 #x0f0f0f0f) #x00000004))))
(let ((a!99 (bvor (bvlshr (bvand a!98 #xff00ff00) #x00000008)
                  (bvshl (bvand a!98 #x00ff00ff) #x00000008))))
(let ((a!100 (bvadd (bvxor (bvor (bvlshr a!99 #x00000010)
                                 (bvshl a!99 #x00000010))
                           #x8fd5c5bd)
                    #x8fd5c5bd)))
(let ((a!101 (bvor (bvlshr (bvand a!100 #xaaaaaaaa) #x00000001)
                   (bvshl (bvand a!100 #x55555555) #x00000001))))
(let ((a!102 (bvor (bvlshr (bvand a!101 #xcccccccc) #x00000002)
                   (bvshl (bvand a!101 #x33333333) #x00000002))))
(let ((a!103 (bvor (bvlshr (bvand a!102 #xf0f0f0f0) #x00000004)
                   (bvshl (bvand a!102 #x0f0f0f0f) #x00000004))))
(let ((a!104 (bvor (bvlshr (bvand a!103 #xff00ff00) #x00000008)
                   (bvshl (bvand a!103 #x00ff00ff) #x00000008))))
(let ((a!105 (bvadd (bvxor (bvor (bvlshr a!104 #x00000010)
                                 (bvshl a!104 #x00000010))
                           #x8fd5c5bd)
                    #x8fd5c5bd)))
(let ((a!106 (bvor (bvlshr (bvand a!105 #xaaaaaaaa) #x00000001)
                   (bvshl (bvand a!105 #x55555555) #x00000001))))
(let ((a!107 (bvor (bvlshr (bvand a!106 #xcccccccc) #x00000002)
                   (bvshl (bvand a!106 #x33333333) #x00000002))))
(let ((a!108 (bvor (bvlshr (bvand a!107 #xf0f0f0f0) #x00000004)
                   (bvshl (bvand a!107 #x0f0f0f0f) #x00000004))))
(let ((a!109 (bvor (bvlshr (bvand a!108 #xff00ff00) #x00000008)
                   (bvshl (bvand a!108 #x00ff00ff) #x00000008))))
(let ((a!110 (bvadd (bvxor (bvor (bvlshr a!109 #x00000010)
                                 (bvshl a!109 #x00000010))
                           #x8fd5c5bd)
                    #x8fd5c5bd)))
(let ((a!111 (bvor (bvlshr (bvand a!110 #xaaaaaaaa) #x00000001)
                   (bvshl (bvand a!110 #x55555555) #x00000001))))
(let ((a!112 (bvor (bvlshr (bvand a!111 #xcccccccc) #x00000002)
                   (bvshl (bvand a!111 #x33333333) #x00000002))))
(let ((a!113 (bvor (bvlshr (bvand a!112 #xf0f0f0f0) #x00000004)
                   (bvshl (bvand a!112 #x0f0f0f0f) #x00000004))))
(let ((a!114 (bvor (bvlshr (bvand a!113 #xff00ff00) #x00000008)
                   (bvshl (bvand a!113 #x00ff00ff) #x00000008))))
(let ((a!115 (bvadd (bvxor (bvor (bvlshr a!114 #x00000010)
                                 (bvshl a!114 #x00000010))
                           #x8fd5c5bd)
                    #x8fd5c5bd)))
(let ((a!116 (bvor (bvlshr (bvand a!115 #xaaaaaaaa) #x00000001)
                   (bvshl (bvand a!115 #x55555555) #x00000001))))
(let ((a!117 (bvor (bvlshr (bvand a!116 #xcccccccc) #x00000002)
                   (bvshl (bvand a!116 #x33333333) #x00000002))))
(let ((a!118 (bvor (bvlshr (bvand a!117 #xf0f0f0f0) #x00000004)
                   (bvshl (bvand a!117 #x0f0f0f0f) #x00000004))))
(let ((a!119 (bvor (bvlshr (bvand a!118 #xff00ff00) #x00000008)
                   (bvshl (bvand a!118 #x00ff00ff) #x00000008))))
(let ((a!120 (bvadd (bvxor (bvor (bvlshr a!119 #x00000010)
                                 (bvshl a!119 #x00000010))
                           #x8fd5c5bd)
                    #x8fd5c5bd)))
(let ((a!121 (bvor (bvlshr (bvand a!120 #xaaaaaaaa) #x00000001)
                   (bvshl (bvand a!120 #x55555555) #x00000001))))
(let ((a!122 (bvor (bvlshr (bvand a!121 #xcccccccc) #x00000002)
                   (bvshl (bvand a!121 #x33333333) #x00000002))))
(let ((a!123 (bvor (bvlshr (bvand a!122 #xf0f0f0f0) #x00000004)
                   (bvshl (bvand a!122 #x0f0f0f0f) #x00000004))))
(let ((a!124 (bvor (bvlshr (bvand a!123 #xff00ff00) #x00000008)
                   (bvshl (bvand a!123 #x00ff00ff) #x00000008))))
(let ((a!125 (bvadd (bvxor (bvor (bvlshr a!124 #x00000010)
                                 (bvshl a!124 #x00000010))
                           #x8fd5c5bd)
                    #x8fd5c5bd)))
(let ((a!126 (bvor (bvlshr (bvand a!125 #xaaaaaaaa) #x00000001)
                   (bvshl (bvand a!125 #x55555555) #x00000001))))
(let ((a!127 (bvor (bvlshr (bvand a!126 #xcccccccc) #x00000002)
                   (bvshl (bvand a!126 #x33333333) #x00000002))))
(let ((a!128 (bvor (bvlshr (bvand a!127 #xf0f0f0f0) #x00000004)
                   (bvshl (bvand a!127 #x0f0f0f0f) #x00000004))))
(let ((a!129 (bvor (bvlshr (bvand a!128 #xff00ff00) #x00000008)
                   (bvshl (bvand a!128 #x00ff00ff) #x00000008))))
(let ((a!130 (bvadd (bvxor (bvor (bvlshr a!129 #x00000010)
                                 (bvshl a!129 #x00000010))
                           #x8fd5c5bd)
                    #x8fd5c5bd)))
(let ((a!131 (bvor (bvlshr (bvand a!130 #xaaaaaaaa) #x00000001)
                   (bvshl (bvand a!130 #x55555555) #x00000001))))
(let ((a!132 (bvor (bvlshr (bvand a!131 #xcccccccc) #x00000002)
                   (bvshl (bvand a!131 #x33333333) #x00000002))))
(let ((a!133 (bvor (bvlshr (bvand a!132 #xf0f0f0f0) #x00000004)
                   (bvshl (bvand a!132 #x0f0f0f0f) #x00000004))))
(let ((a!134 (bvor (bvlshr (bvand a!133 #xff00ff00) #x00000008)
                   (bvshl (bvand a!133 #x00ff00ff) #x00000008))))
(let ((a!135 (bvadd (bvxor (bvor (bvlshr a!134 #x00000010)
                                 (bvshl a!134 #x00000010))
                           #x8fd5c5bd)
                    #x8fd5c5bd)))
(let ((a!136 (bvor (bvlshr (bvand a!135 #xaaaaaaaa) #x00000001)
                   (bvshl (bvand a!135 #x55555555) #x00000001))))
(let ((a!137 (bvor (bvlshr (bvand a!136 #xcccccccc) #x00000002)
                   (bvshl (bvand a!136 #x33333333) #x00000002))))
(let ((a!138 (bvor (bvlshr (bvand a!137 #xf0f0f0f0) #x00000004)
                   (bvshl (bvand a!137 #x0f0f0f0f) #x00000004))))
(let ((a!139 (bvor (bvlshr (bvand a!138 #xff00ff00) #x00000008)
                   (bvshl (bvand a!138 #x00ff00ff) #x00000008))))
(let ((a!140 (bvadd (bvxor (bvor (bvlshr a!139 #x00000010)
                                 (bvshl a!139 #x00000010))
                           #x8fd5c5bd)
                    #x8fd5c5bd)))
(let ((a!141 (bvor (bvlshr (bvand a!140 #xaaaaaaaa) #x00000001)
                   (bvshl (bvand a!140 #x55555555) #x00000001))))
(let ((a!142 (bvor (bvlshr (bvand a!141 #xcccccccc) #x00000002)
                   (bvshl (bvand a!141 #x33333333) #x00000002))))
(let ((a!143 (bvor (bvlshr (bvand a!142 #xf0f0f0f0) #x00000004)
                   (bvshl (bvand a!142 #x0f0f0f0f) #x00000004))))
(let ((a!144 (bvor (bvlshr (bvand a!143 #xff00ff00) #x00000008)
                   (bvshl (bvand a!143 #x00ff00ff) #x00000008))))
(let ((a!145 (bvadd (bvxor (bvor (bvlshr a!144 #x00000010)
                                 (bvshl a!144 #x00000010))
                           #x8fd5c5bd)
                    #x8fd5c5bd)))
(let ((a!146 (bvor (bvlshr (bvand a!145 #xaaaaaaaa) #x00000001)
                   (bvshl (bvand a!145 #x55555555) #x00000001))))
(let ((a!147 (bvor (bvlshr (bvand a!146 #xcccccccc) #x00000002)
                   (bvshl (bvand a!146 #x33333333) #x00000002))))
(let ((a!148 (bvor (bvlshr (bvand a!147 #xf0f0f0f0) #x00000004)
                   (bvshl (bvand a!147 #x0f0f0f0f) #x00000004))))
(let ((a!149 (bvor (bvlshr (bvand a!148 #xff00ff00) #x00000008)
                   (bvshl (bvand a!148 #x00ff00ff) #x00000008))))
(let ((a!150 (bvadd (bvxor (bvor (bvlshr a!149 #x00000010)
                                 (bvshl a!149 #x00000010))
                           #x8fd5c5bd)
                    #x8fd5c5bd)))
(let ((a!151 (bvor (bvlshr (bvand a!150 #xaaaaaaaa) #x00000001)
                   (bvshl (bvand a!150 #x55555555) #x00000001))))
(let ((a!152 (bvor (bvlshr (bvand a!151 #xcccccccc) #x00000002)
                   (bvshl (bvand a!151 #x33333333) #x00000002))))
(let ((a!153 (bvor (bvlshr (bvand a!152 #xf0f0f0f0) #x00000004)
                   (bvshl (bvand a!152 #x0f0f0f0f) #x00000004))))
(let ((a!154 (bvor (bvlshr (bvand a!153 #xff00ff00) #x00000008)
                   (bvshl (bvand a!153 #x00ff00ff) #x00000008))))
(let ((a!155 (bvadd (bvxor (bvor (bvlshr a!154 #x00000010)
                                 (bvshl a!154 #x00000010))
                           #x8fd5c5bd)
                    #x8fd5c5bd)))
(let ((a!156 (bvor (bvlshr (bvand a!155 #xaaaaaaaa) #x00000001)
                   (bvshl (bvand a!155 #x55555555) #x00000001))))
(let ((a!157 (bvor (bvlshr (bvand a!156 #xcccccccc) #x00000002)
                   (bvshl (bvand a!156 #x33333333) #x00000002))))
(let ((a!158 (bvor (bvlshr (bvand a!157 #xf0f0f0f0) #x00000004)
                   (bvshl (bvand a!157 #x0f0f0f0f) #x00000004))))
(let ((a!159 (bvor (bvlshr (bvand a!158 #xff00ff00) #x00000008)
                   (bvshl (bvand a!158 #x00ff00ff) #x00000008))))
(let ((a!160 (bvadd (bvxor (bvor (bvlshr a!159 #x00000010)
                                 (bvshl a!159 #x00000010))
                           #x8fd5c5bd)
                    #x8fd5c5bd)))
(let ((a!161 (bvor (bvlshr (bvand a!160 #xaaaaaaaa) #x00000001)
                   (bvshl (bvand a!160 #x55555555) #x00000001))))
(let ((a!162 (bvor (bvlshr (bvand a!161 #xcccccccc) #x00000002)
                   (bvshl (bvand a!161 #x33333333) #x00000002))))
(let ((a!163 (bvor (bvlshr (bvand a!162 #xf0f0f0f0) #x00000004)
                   (bvshl (bvand a!162 #x0f0f0f0f) #x00000004))))
(let ((a!164 (bvor (bvlshr (bvand a!163 #xff00ff00) #x00000008)
                   (bvshl (bvand a!163 #x00ff00ff) #x00000008))))
(let ((a!165 (bvadd (bvxor (bvor (bvlshr a!164 #x00000010)
                                 (bvshl a!164 #x00000010))
                           #x8fd5c5bd)
                    #x8fd5c5bd)))
(let ((a!166 (bvor (bvlshr (bvand a!165 #xaaaaaaaa) #x00000001)
                   (bvshl (bvand a!165 #x55555555) #x00000001))))
(let ((a!167 (bvor (bvlshr (bvand a!166 #xcccccccc) #x00000002)
                   (bvshl (bvand a!166 #x33333333) #x00000002))))
(let ((a!168 (bvor (bvlshr (bvand a!167 #xf0f0f0f0) #x00000004)
                   (bvshl (bvand a!167 #x0f0f0f0f) #x00000004))))
(let ((a!169 (bvor (bvlshr (bvand a!168 #xff00ff00) #x00000008)
                   (bvshl (bvand a!168 #x00ff00ff) #x00000008))))
(let ((a!170 (bvadd (bvxor (bvor (bvlshr a!169 #x00000010)
                                 (bvshl a!169 #x00000010))
                           #x8fd5c5bd)
                    #x8fd5c5bd)))
(let ((a!171 (bvor (bvlshr (bvand a!170 #xaaaaaaaa) #x00000001)
                   (bvshl (bvand a!170 #x55555555) #x00000001))))
(let ((a!172 (bvor (bvlshr (bvand a!171 #xcccccccc) #x00000002)
                   (bvshl (bvand a!171 #x33333333) #x00000002))))
(let ((a!173 (bvor (bvlshr (bvand a!172 #xf0f0f0f0) #x00000004)
                   (bvshl (bvand a!172 #x0f0f0f0f) #x00000004))))
(let ((a!174 (bvor (bvlshr (bvand a!173 #xff00ff00) #x00000008)
                   (bvshl (bvand a!173 #x00ff00ff) #x00000008))))
(let ((a!175 (bvadd (bvxor (bvor (bvlshr a!174 #x00000010)
                                 (bvshl a!174 #x00000010))
                           #x8fd5c5bd)
                    #x8fd5c5bd)))
(let ((a!176 (bvor (bvlshr (bvand a!175 #xaaaaaaaa) #x00000001)
                   (bvshl (bvand a!175 #x55555555) #x00000001))))
(let ((a!177 (bvor (bvlshr (bvand a!176 #xcccccccc) #x00000002)
                   (bvshl (bvand a!176 #x33333333) #x00000002))))
(let ((a!178 (bvor (bvlshr (bvand a!177 #xf0f0f0f0) #x00000004)
                   (bvshl (bvand a!177 #x0f0f0f0f) #x00000004))))
(let ((a!179 (bvor (bvlshr (bvand a!178 #xff00ff00) #x00000008)
                   (bvshl (bvand a!178 #x00ff00ff) #x00000008))))
(let ((a!180 (bvadd (bvxor (bvor (bvlshr a!179 #x00000010)
                                 (bvshl a!179 #x00000010))
                           #x8fd5c5bd)
                    #x8fd5c5bd)))
(let ((a!181 (bvor (bvlshr (bvand a!180 #xaaaaaaaa) #x00000001)
                   (bvshl (bvand a!180 #x55555555) #x00000001))))
(let ((a!182 (bvor (bvlshr (bvand a!181 #xcccccccc) #x00000002)
                   (bvshl (bvand a!181 #x33333333) #x00000002))))
(let ((a!183 (bvor (bvlshr (bvand a!182 #xf0f0f0f0) #x00000004)
                   (bvshl (bvand a!182 #x0f0f0f0f) #x00000004))))
(let ((a!184 (bvor (bvlshr (bvand a!183 #xff00ff00) #x00000008)
                   (bvshl (bvand a!183 #x00ff00ff) #x00000008))))
(let ((a!185 (bvadd (bvxor (bvor (bvlshr a!184 #x00000010)
                                 (bvshl a!184 #x00000010))
                           #x8fd5c5bd)
                    #x8fd5c5bd)))
(let ((a!186 (bvor (bvlshr (bvand a!185 #xaaaaaaaa) #x00000001)
                   (bvshl (bvand a!185 #x55555555) #x00000001))))
(let ((a!187 (bvor (bvlshr (bvand a!186 #xcccccccc) #x00000002)
                   (bvshl (bvand a!186 #x33333333) #x00000002))))
(let ((a!188 (bvor (bvlshr (bvand a!187 #xf0f0f0f0) #x00000004)
                   (bvshl (bvand a!187 #x0f0f0f0f) #x00000004))))
(let ((a!189 (bvor (bvlshr (bvand a!188 #xff00ff00) #x00000008)
                   (bvshl (bvand a!188 #x00ff00ff) #x00000008))))
(let ((a!190 (bvadd (bvxor (bvor (bvlshr a!189 #x00000010)
                                 (bvshl a!189 #x00000010))
                           #x8fd5c5bd)
                    #x8fd5c5bd)))
(let ((a!191 (bvor (bvlshr (bvand a!190 #xaaaaaaaa) #x00000001)
                   (bvshl (bvand a!190 #x55555555) #x00000001))))
(let ((a!192 (bvor (bvlshr (bvand a!191 #xcccccccc) #x00000002)
                   (bvshl (bvand a!191 #x33333333) #x00000002))))
(let ((a!193 (bvor (bvlshr (bvand a!192 #xf0f0f0f0) #x00000004)
                   (bvshl (bvand a!192 #x0f0f0f0f) #x00000004))))
(let ((a!194 (bvor (bvlshr (bvand a!193 #xff00ff00) #x00000008)
                   (bvshl (bvand a!193 #x00ff00ff) #x00000008))))
(let ((a!195 (bvadd (bvxor (bvor (bvlshr a!194 #x00000010)
                                 (bvshl a!194 #x00000010))
                           #x8fd5c5bd)
                    #x8fd5c5bd)))
(let ((a!196 (bvor (bvlshr (bvand a!195 #xaaaaaaaa) #x00000001)
                   (bvshl (bvand a!195 #x55555555) #x00000001))))
(let ((a!197 (bvor (bvlshr (bvand a!196 #xcccccccc) #x00000002)
                   (bvshl (bvand a!196 #x33333333) #x00000002))))
(let ((a!198 (bvor (bvlshr (bvand a!197 #xf0f0f0f0) #x00000004)
                   (bvshl (bvand a!197 #x0f0f0f0f) #x00000004))))
(let ((a!199 (bvor (bvlshr (bvand a!198 #xff00ff00) #x00000008)
                   (bvshl (bvand a!198 #x00ff00ff) #x00000008))))
(let ((a!200 (bvadd (bvxor (bvor (bvlshr a!199 #x00000010)
                                 (bvshl a!199 #x00000010))
                           #x8fd5c5bd)
                    #x8fd5c5bd)))
(let ((a!201 (bvor (bvlshr (bvand a!200 #xaaaaaaaa) #x00000001)
                   (bvshl (bvand a!200 #x55555555) #x00000001))))
(let ((a!202 (bvor (bvlshr (bvand a!201 #xcccccccc) #x00000002)
                   (bvshl (bvand a!201 #x33333333) #x00000002))))
(let ((a!203 (bvor (bvlshr (bvand a!202 #xf0f0f0f0) #x00000004)
                   (bvshl (bvand a!202 #x0f0f0f0f) #x00000004))))
(let ((a!204 (bvor (bvlshr (bvand a!203 #xff00ff00) #x00000008)
                   (bvshl (bvand a!203 #x00ff00ff) #x00000008))))
  (= (bvxor (bvor (bvlshr a!204 #x00000010) (bvshl a!204 #x00000010))
            ((_ rotate_right 14) a!259))
     #x1eb8bed7))))))))))))))))))))))))))))))))))))))))))))))))))))))))))))))))))))))))))))))))))))))))))))))))))))))))))))))))))))))))))))))))))))))))))))))))))))))))))))))))))))))))))))))))))))))))))))))))))))))))))))))

(check-sat)

(get-value (password0))
